p cnf 20 20
9 20 -19 0
14 -13 4 0
1 -17 13 0
16 -1 -14 0
-2 12 -3 0
-9 18 -17 0
-17 8 -11 0
-4 9 20 0
9 -17 4 0
-12 5 -7 0
12 -20 -4 0
-12 -3 -16 0
-5 -9 2 0
-17 -7 -14 0
-13 20 -12 0
11 7 19 0
-11 -18 2 0
18 4 14 0
-1 -20 -2 0
20 -4 3 0
